20J6M/DAT/20J6MNLL-5.dat
20 6
29.3624 29.3624
26.6929 26.6929
22.5318 22.5318
35.1469 35.1469
30.4338 30.4338
27.3731 27.3731
26.6286 26.6286
23.5649 23.5649
28.0175 28.0175
24.5446 24.5446
25.2029 25.2029
11.9435 11.9435
29.8183 29.8183
24.2431 24.2431
26.3783 26.3783
20.9864 20.9864
20.4306 20.4306
21.7987 21.7987
19.9183 19.9183
24.7617 24.7617
83.2964