20J6M/SOL/20J6MNLL-5.sol
solution status: optimal solution found
objective value:                     83.2963833333333
x#1#5                                0.38060694402819 	(obj:0)
x#1#6                                0.61939305597181 	(obj:0)
x#2#1                                               1 	(obj:0)
x#3#3                              0.0884682981386304 	(obj:0)
x#3#5                                0.91153170186137 	(obj:0)
x#4#2                              0.0134061135785326 	(obj:0)
x#4#6                               0.986593886421467 	(obj:0)
x#5#6                                               1 	(obj:0)
x#6#1                               0.706856975156875 	(obj:0)
x#6#3                               0.293143024843125 	(obj:0)
x#7#2                                               1 	(obj:0)
x#8#5                                               1 	(obj:0)
x#9#5                                               1 	(obj:0)
x#10#4                                              1 	(obj:0)
x#11#1                                              1 	(obj:0)
x#12#3                                              1 	(obj:0)
x#13#2                                              1 	(obj:0)
x#14#4                                              1 	(obj:0)
x#15#2                                              1 	(obj:0)
x#16#3                                              1 	(obj:0)
x#17#3                                              1 	(obj:0)
x#18#4                                              1 	(obj:0)
x#19#3                                              1 	(obj:0)
x#20#1                              0.486707967008189 	(obj:0)
x#20#4                              0.513292032991811 	(obj:0)
z                                    83.2963833333333 	(obj:1)
